benchmark/results/graph__10-1000-0.10-02_17/error_log/graph__10-1000-0.10-02_17_Quinton_Benders_primal_sub_ERRORLOG.lp
\ This file has been generated by DOcplex
\ ENCODING=ISO-8859-1
\Problem name: Quinton Benders_primal_sub

Maximize
 obj: tau
Subject To
 c1: tau <= 0.001251564456
 c2: y_a0_proc_0 - tau = 0
 c3: y_a0_proc_0 <= 1
 c4: tau <= 0.000876424189
 c5: y_a1_proc_0 + y_a1_proc_1 - tau = 0
 c6: y_a1_proc_0 <= 0
 c7: y_a1_proc_1 <= 1
 c8: tau <= 0.001096491228
 c9: y_a2_proc_0 - tau = 0
 c10: y_a2_proc_0 <= 1
 c11: tau <= 0.000887311446
 c12: y_a3_proc_1 - tau = 0
 c13: y_a3_proc_1 <= 1
 c14: tau <= 0.000864304235
 c15: y_a4_proc_0 + y_a4_proc_1 - tau = 0
 c16: y_a4_proc_0 <= 0
 c17: y_a4_proc_1 <= 1
 c18: tau <= 0.001072961373
 c19: y_a5_proc_0 + y_a5_proc_1 - tau = 0
 c20: y_a5_proc_0 <= 1
 c21: y_a5_proc_1 <= 0
 c22: tau <= 0.002364066194
 c23: y_a6_proc_0 + y_a6_proc_1 - tau = 0
 c24: y_a6_proc_0 <= 1
 c25: y_a6_proc_1 <= 0
 c26: tau <= 0.000888099467
 c27: y_a7_proc_1 - tau = 0
 c28: y_a7_proc_1 <= 1
 c29: tau <= 0.001187648456
 c30: y_a8_proc_0 + y_a8_proc_1 - tau = 0
 c31: y_a8_proc_0 <= 0
 c32: y_a8_proc_1 <= 1
 c33: tau <= 0.001221001221
 c34: y_a9_proc_0 + y_a9_proc_1 - tau = 0
 c35: y_a9_proc_0 <= 0
 c36: y_a9_proc_1 <= 1
 c37: u_a0 - u_a1 - 1109 y_a1_proc_0 - 1141 y_a1_proc_1 >= 0
 c38: u_a1 - u_a2 - 912 y_a2_proc_0 >= -1
 c39: u_a2 - u_a3 - 1127 y_a3_proc_1 >= 0
 c40: u_a4 - u_a0 - 799 y_a0_proc_0 >= -1
 c41: u_a2 - u_a5 - 932 y_a5_proc_0 - 1167 y_a5_proc_1 >= -1
 c42: u_a2 - u_a6 - 423 y_a6_proc_0 - 885 y_a6_proc_1 >= 0
 c43: u_a7 - u_a5 - 932 y_a5_proc_0 - 1167 y_a5_proc_1 >= -1
 c44: u_a8 - u_a4 - 901 y_a4_proc_0 - 1157 y_a4_proc_1 >= 0
 c45: u_a4 - u_a9 - 1193 y_a9_proc_0 - 819 y_a9_proc_1 >= 0
 c46: u_a6 - u_a8 - 1156 y_a8_proc_0 - 842 y_a8_proc_1 >= -1
 c47: u_a6 - u_a5 - 932 y_a5_proc_0 - 1167 y_a5_proc_1 >= -1
 c48: u_a9 - u_a7 - 1126 y_a7_proc_1 >= 0
 c49: u_a5 - u_a8 - 1156 y_a8_proc_0 - 842 y_a8_proc_1 >= 0
 c50: u_a1 - u_a0 - 799 y_a0_proc_0 >= -2388
 c51: u_a0 - u_a1 - 1109 y_a1_proc_0 >= 1
 c52: u_a2 - u_a0 - 799 y_a0_proc_0 >= -1
 c53: u_a0 - u_a2 - 912 y_a2_proc_0 >= 0
 c54: u_a4 - u_a0 - 799 y_a0_proc_0 >= -2387
 c55: u_a0 - u_a4 - 901 y_a4_proc_0 >= 0
 c56: u_a5 - u_a0 - 799 y_a0_proc_0 >= -1
 c57: u_a0 - u_a5 - 932 y_a5_proc_0 >= 0
 c58: u_a6 - u_a0 - 799 y_a0_proc_0 >= -2
 c59: u_a0 - u_a6 - 423 y_a6_proc_0 >= 1
 c60: u_a8 - u_a0 - 799 y_a0_proc_0 >= -2387
 c61: u_a0 - u_a8 - 1156 y_a8_proc_0 >= 0
 c62: u_a9 - u_a0 - 799 y_a0_proc_0 >= -2388
 c63: u_a0 - u_a9 - 1193 y_a9_proc_0 >= 1
 c64: u_a2 - u_a1 - 1109 y_a1_proc_0 >= -2386
 c65: u_a1 - u_a2 - 912 y_a2_proc_0 >= -1
 c66: u_a3 - u_a1 - 1141 y_a1_proc_1 >= -999998806
 c67: u_a1 - u_a3 - 1127 y_a3_proc_1 >= 999998805
 c68: u_a4 - u_a1 - 1141 y_a1_proc_1 >= 1
 c69: u_a4 - u_a1 - 1109 y_a1_proc_0 >= -2385
 c70: u_a1 - u_a4 - 1157 y_a4_proc_1 >= -2
 c71: u_a1 - u_a4 - 901 y_a4_proc_0 >= -2388
 c72: u_a5 - u_a1 - 1141 y_a1_proc_1 >= -2385
 c73: u_a5 - u_a1 - 1109 y_a1_proc_0 >= -2385
 c74: u_a1 - u_a5 - 1167 y_a5_proc_1 >= -2
 c75: u_a1 - u_a5 - 932 y_a5_proc_0 >= -2
 c76: u_a6 - u_a1 - 1141 y_a1_proc_1 >= -2386
 c77: u_a6 - u_a1 - 1109 y_a1_proc_0 >= -2386
 c78: u_a1 - u_a6 - 885 y_a6_proc_1 >= -1
 c79: u_a1 - u_a6 - 423 y_a6_proc_0 >= -1
 c80: u_a7 - u_a1 - 1141 y_a1_proc_1 >= 0
 c81: u_a1 - u_a7 - 1126 y_a7_proc_1 >= -1
 c82: u_a8 - u_a1 - 1141 y_a1_proc_1 >= 1
 c83: u_a8 - u_a1 - 1109 y_a1_proc_0 >= -2385
 c84: u_a1 - u_a8 - 842 y_a8_proc_1 >= -2
 c85: u_a1 - u_a8 - 1156 y_a8_proc_0 >= -2388
 c86: u_a9 - u_a1 - 1141 y_a1_proc_1 >= 0
 c87: u_a9 - u_a1 - 1109 y_a1_proc_0 >= -2386
 c88: u_a1 - u_a9 - 819 y_a9_proc_1 >= -1
 c89: u_a1 - u_a9 - 1193 y_a9_proc_0 >= -2387
 c90: u_a4 - u_a2 - 912 y_a2_proc_0 >= 0
 c91: u_a2 - u_a4 - 901 y_a4_proc_0 >= -2387
 c92: u_a5 - u_a2 - 912 y_a2_proc_0 >= 0
 c93: u_a2 - u_a5 - 932 y_a5_proc_0 >= -1
 c94: u_a6 - u_a2 - 912 y_a2_proc_0 >= -1
 c95: u_a2 - u_a6 - 423 y_a6_proc_0 >= 0
 c96: u_a8 - u_a2 - 912 y_a2_proc_0 >= 0
 c97: u_a2 - u_a8 - 1156 y_a8_proc_0 >= -2387
 c98: u_a9 - u_a2 - 912 y_a2_proc_0 >= -2387
 c99: u_a2 - u_a9 - 1193 y_a9_proc_0 >= 0
 c100: u_a4 - u_a3 - 1127 y_a3_proc_1 >= 999998806
 c101: u_a3 - u_a4 - 1157 y_a4_proc_1 >= -999998807
 c102: u_a5 - u_a3 - 1127 y_a3_proc_1 >= 999998806
 c103: u_a3 - u_a5 - 1167 y_a5_proc_1 >= -1000001193
 c104: u_a6 - u_a3 - 1127 y_a3_proc_1 >= 999998805
 c105: u_a3 - u_a6 - 885 y_a6_proc_1 >= -1000001192
 c106: u_a7 - u_a3 - 1127 y_a3_proc_1 >= 999998805
 c107: u_a3 - u_a7 - 1126 y_a7_proc_1 >= -999998806
 c108: u_a8 - u_a3 - 1127 y_a3_proc_1 >= 999998806
 c109: u_a3 - u_a8 - 842 y_a8_proc_1 >= -999998807
 c110: u_a9 - u_a3 - 1127 y_a3_proc_1 >= 999998805
 c111: u_a3 - u_a9 - 819 y_a9_proc_1 >= -999998806
 c112: u_a5 - u_a4 - 1157 y_a4_proc_1 >= -2386
 c113: u_a5 - u_a4 - 901 y_a4_proc_0 >= -2386
 c114: u_a4 - u_a5 - 1167 y_a5_proc_1 >= -1
 c115: u_a4 - u_a5 - 932 y_a5_proc_0 >= -1
 c116: u_a6 - u_a4 - 1157 y_a4_proc_1 >= -2387
 c117: u_a6 - u_a4 - 901 y_a4_proc_0 >= -2387
 c118: u_a4 - u_a6 - 885 y_a6_proc_1 >= 0
 c119: u_a4 - u_a6 - 423 y_a6_proc_0 >= 0
 c120: u_a7 - u_a4 - 1157 y_a4_proc_1 >= -1
 c121: u_a4 - u_a7 - 1126 y_a7_proc_1 >= 0
 c122: u_a8 - u_a4 - 1157 y_a4_proc_1 >= 0
 c123: u_a8 - u_a4 - 901 y_a4_proc_0 >= -2386
 c124: u_a4 - u_a8 - 842 y_a8_proc_1 >= -1
 c125: u_a4 - u_a8 - 1156 y_a8_proc_0 >= -2387
 c126: u_a9 - u_a4 - 1157 y_a4_proc_1 >= -1
 c127: u_a9 - u_a4 - 901 y_a4_proc_0 >= -2387
 c128: u_a4 - u_a9 - 819 y_a9_proc_1 >= 0
 c129: u_a4 - u_a9 - 1193 y_a9_proc_0 >= -2386
 c130: u_a6 - u_a5 - 1167 y_a5_proc_1 >= -2387
 c131: u_a6 - u_a5 - 932 y_a5_proc_0 >= -1
 c132: u_a5 - u_a6 - 885 y_a6_proc_1 >= -2386
 c133: u_a5 - u_a6 - 423 y_a6_proc_0 >= 0
 c134: u_a7 - u_a5 - 1167 y_a5_proc_1 >= -2387
 c135: u_a5 - u_a7 - 1126 y_a7_proc_1 >= 0
 c136: u_a8 - u_a5 - 1167 y_a5_proc_1 >= -2386
 c137: u_a8 - u_a5 - 932 y_a5_proc_0 >= -2386
 c138: u_a5 - u_a8 - 842 y_a8_proc_1 >= -1
 c139: u_a5 - u_a8 - 1156 y_a8_proc_0 >= -1
 c140: u_a9 - u_a5 - 1167 y_a5_proc_1 >= -2387
 c141: u_a9 - u_a5 - 932 y_a5_proc_0 >= -2387
 c142: u_a5 - u_a9 - 819 y_a9_proc_1 >= 0
 c143: u_a5 - u_a9 - 1193 y_a9_proc_0 >= 0
 c144: u_a7 - u_a6 - 885 y_a6_proc_1 >= -2387
 c145: u_a6 - u_a7 - 1126 y_a7_proc_1 >= 0
 c146: u_a8 - u_a6 - 885 y_a6_proc_1 >= -2386
 c147: u_a8 - u_a6 - 423 y_a6_proc_0 >= -2386
 c148: u_a6 - u_a8 - 842 y_a8_proc_1 >= -1
 c149: u_a6 - u_a8 - 1156 y_a8_proc_0 >= -1
 c150: u_a9 - u_a6 - 885 y_a6_proc_1 >= -1
 c151: u_a9 - u_a6 - 423 y_a6_proc_0 >= -1
 c152: u_a6 - u_a9 - 819 y_a9_proc_1 >= -2386
 c153: u_a6 - u_a9 - 1193 y_a9_proc_0 >= -2386
 c154: u_a8 - u_a7 - 1126 y_a7_proc_1 >= 0
 c155: u_a7 - u_a8 - 842 y_a8_proc_1 >= -1
 c156: u_a9 - u_a7 - 1126 y_a7_proc_1 >= 0
 c157: u_a7 - u_a9 - 819 y_a9_proc_1 >= -1
 c158: u_a9 - u_a8 - 842 y_a8_proc_1 >= -1
 c159: u_a9 - u_a8 - 1156 y_a8_proc_0 >= -2387
 c160: u_a8 - u_a9 - 819 y_a9_proc_1 >= 0
 c161: u_a8 - u_a9 - 1193 y_a9_proc_0 >= -2386

Bounds
End
