benchmark/results/graph__10-1000-0.10-02_17/error_log/graph__10-1000-0.10-02_17_Quinton_Benders_primal_sub_ERRORLOG.txt
solution for: Quinton Benders_primal_sub
objective: 0.000136388
status: OPTIMAL_SOLUTION(2)
u_a0=999998806.920
u_a1=999998805.154
u_a2=999998806.029
u_a4=999998806.309
u_a5=999998806.582
u_a6=999998805.863
u_a7=999998805.709
u_a8=999998806.467
u_a9=999998805.863
tau=0.000
y_a0_proc_0=0.000
y_a1_proc_1=0.000
y_a2_proc_0=0.000
y_a3_proc_1=0.000
y_a4_proc_1=0.000
y_a5_proc_0=0.000
y_a6_proc_0=0.000
y_a7_proc_1=0.000
y_a8_proc_1=0.000
y_a9_proc_1=0.000
